(set-logic ALL)
(declare-const GEN1 Int)
(declare-const GEN2 Int)
(declare-const GEN3 Int)
(declare-const GEN4 Int)
(declare-const GEN5 Int)
(declare-const GEN6 Int)
(declare-const GEN7 Int)
(declare-const GEN8 Int)
(declare-const GEN9 Int)
(declare-const GEN10 Int)
(declare-const GEN11 Int)
(declare-const GEN12 Int)
(declare-const GEN13 Int)
(declare-const GEN14 Int)
(declare-const GEN15 Int)
(declare-const GEN16 Int)
(declare-const GEN17 Int)
(declare-const GEN18 Int)
(declare-const GEN19 Int)
(declare-const GEN20 Int)
(declare-const GEN21 Int)
(declare-const GEN22 Int)
(declare-const GEN23 Int)
(declare-const GEN24 Int)
(declare-const GEN25 Int)
(declare-const GEN26 Int)
(declare-const GEN27 Int)
(declare-const GEN28 Int)
(declare-const GEN29 Int)
(declare-const GEN30 Int)
(declare-const GEN31 Int)
(declare-const GEN32 Int)
(declare-const GEN33 Int)
(declare-const GEN34 Int)
(declare-const GEN35 Int)
(declare-const GEN36 Int)
(declare-const GEN37 Int)
(declare-const GEN38 Int)
(declare-const GEN39 Int)
(declare-const GEN40 Int)
(declare-const GEN41 Int)
(declare-const GEN42 Int)
(declare-const GEN43 Int)
(declare-const GEN44 Int)
(declare-const GEN45 Int)
(declare-const GEN46 Int)
(declare-const GEN47 Int)
(declare-const GEN48 Int)
(declare-const GEN49 Int)
(declare-const GEN50 Int)
(declare-const GEN51 Int)
(declare-const GEN52 Int)
(declare-const GEN53 Int)
(declare-const GEN54 Int)
(declare-const GEN55 Int)
(declare-const GEN56 Int)
(declare-const GEN57 Int)
(declare-const GEN58 Int)
(declare-const GEN59 Int)
(declare-const GEN60 Int)
(declare-const GEN61 Int)
(declare-const GEN62 Int)
(declare-const GEN63 Int)
(declare-const GEN64 Int)
(declare-const GEN65 Int)
(declare-const GEN66 Int)
(declare-const GEN67 Int)
(declare-const GEN68 Int)
(declare-const GEN69 Int)
(declare-const GEN70 Int)
(declare-const GEN71 Int)
(declare-const GEN72 Int)
(declare-const GEN73 Int)
(declare-const GEN74 Int)
(declare-const GEN75 Int)
(declare-const GEN76 Int)
(declare-const GEN77 Int)
(declare-const GEN78 Int)
(declare-const GEN79 Int)
(declare-const GEN80 Int)
(declare-const GEN81 Int)
(declare-const GEN82 Int)
(declare-const GEN83 Int)
(declare-const GEN84 Int)
(declare-const GEN85 Int)
(declare-const GEN86 Int)
(declare-const BAV87 Bool)
(declare-const BAV88 Bool)
(declare-const BAV89 Bool)
(declare-const BAV90 Bool)
(declare-const BAV91 Bool)
(declare-const BAV92 Bool)
(declare-const BAV93 Bool)
(declare-const BAV94 Bool)
(declare-const BAV95 Bool)
(declare-const BAV96 Bool)
(declare-const BAV97 Bool)
(declare-const BAV98 Bool)
(declare-const BAV99 Bool)
(declare-const BAV100 Bool)
(declare-const BAV101 Bool)
(declare-const BAV102 Bool)
(declare-const BAV103 Bool)
(declare-const BAV104 Bool)
(declare-const BAV105 Bool)
(declare-const BAV106 Bool)
(declare-const BAV107 Bool)
(declare-const BAV108 Bool)
(declare-const BAV109 Bool)
(declare-const BAV110 Bool)
(declare-const BAV111 Bool)
(declare-const BAV112 Bool)
(declare-const BAV113 Bool)
(declare-const BAV114 Bool)
(declare-fun x0 () Real)
(declare-fun x1 () Real)
(declare-fun x2 () Real)
(assert (not (<= (+ (* (- GEN1) x0) (* GEN2 x0) (* GEN3 x1)) (- GEN4))))
(assert (or (not (> (+ (* (- GEN5) x0) (* GEN6 x1)) (- GEN7))) (not (>= (+ (* GEN8 x0) (* GEN9 x0) (* (- GEN10) x1) (* (- GEN11) x0)) (- GEN12)))))
(assert (= BAV87 (<= (+ (* (- GEN1) x0) (* GEN2 x0) (* GEN3 x1)) (- GEN4))))
(assert (= BAV88 (or (not (> (+ (* (- GEN5) x0) (* GEN6 x1)) (- GEN7))) (not (>= (+ (* GEN8 x0) (* GEN9 x0) (* (- GEN10) x1) (* (- GEN11) x0)) (- GEN12))))))
(assert (= BAV89 (> (+ (* (- GEN5) x0) (* GEN6 x1)) (- GEN7))))
(assert (= BAV90 (>= (+ (* GEN8 x0) (* GEN9 x0) (* (- GEN10) x1) (* (- GEN11) x0)) (- GEN12))))
(assert (= BAV91 (> (+ (* (- GEN13) x2) (* GEN14 x2)) GEN15)))
(assert (= BAV92 (= (+ (* GEN16 x1) (* (- GEN17) x2)) GEN18)))
(assert (= BAV93 (<= (+ (* GEN19 x0) (* (- GEN20) x1) (* GEN21 x1)) GEN22)))
(assert (= BAV94 (or (<= (+ (* GEN23 x0) (* (- GEN24) x0) (* GEN25 x1) (* GEN26 x1)) GEN27) (not (>= (+ (* GEN28 x1) (* (- GEN29) x1) (* (- GEN30) x1)) GEN31)) (not (>= (+ (* (- GEN32) x2) (* GEN33 x2) (* GEN34 x0) (* GEN35 x2)) GEN36)))))
(assert (= BAV95 (<= (+ (* GEN23 x0) (* (- GEN24) x0) (* GEN25 x1) (* GEN26 x1)) GEN27)))
(assert (= BAV96 (>= (+ (* GEN28 x1) (* (- GEN29) x1) (* (- GEN30) x1)) GEN31)))
(assert (= BAV97 (>= (+ (* (- GEN32) x2) (* GEN33 x2) (* GEN34 x0) (* GEN35 x2)) GEN36)))
(assert (= BAV98 (or (= (+ (* (- GEN37) x1) (* GEN38 x0) (* (- GEN39) x0)) GEN40) (not (<= (+ (* (- GEN41) x2) (* GEN42 x0) (* GEN43 x2)) GEN44)))))
(assert (= BAV99 (= (+ (* (- GEN37) x1) (* GEN38 x0) (* (- GEN39) x0)) GEN40)))
(assert (= BAV100 (<= (+ (* (- GEN41) x2) (* GEN42 x0) (* GEN43 x2)) GEN44)))
(assert (= BAV101 (or (<= (+ (* GEN45 x2) (* (- GEN46) x1)) (- GEN47)) (= (+ (* (- GEN48) x2) (* (- GEN49) x2) (* (- GEN50) x2) (* (- GEN51) x2)) (- GEN52)))))
(assert (= BAV102 (<= (+ (* GEN45 x2) (* (- GEN46) x1)) (- GEN47))))
(assert (= BAV103 (= (+ (* (- GEN48) x2) (* (- GEN49) x2) (* (- GEN50) x2) (* (- GEN51) x2)) (- GEN52))))
(assert (= BAV104 (or (= (+ (* GEN53 x2) (* GEN54 x0) (* (- GEN55) x1)) GEN56) (not (< (+ (* GEN57 x2) (* (- GEN58) x0) (* GEN59 x2) (* GEN60 x0)) GEN61)) (not (<= (+ (* (- GEN62) x2) (* GEN63 x0) (* GEN64 x2) (* (- GEN65) x1)) GEN66)))))
(assert (= BAV105 (= (+ (* GEN53 x2) (* GEN54 x0) (* (- GEN55) x1)) GEN56)))
(assert (= BAV106 (< (+ (* GEN57 x2) (* (- GEN58) x0) (* GEN59 x2) (* GEN60 x0)) GEN61)))
(assert (= BAV107 (<= (+ (* (- GEN62) x2) (* GEN63 x0) (* GEN64 x2) (* (- GEN65) x1)) GEN66)))
(assert (= BAV108 (or (= (+ (* (- GEN67) x0) (* GEN68 x2)) (- GEN69)) (not (<= (+ (* (- GEN70) x0) (* GEN71 x0) (* (- GEN72) x1) (* (- GEN73) x0)) (- GEN74))))))
(assert (= BAV109 (= (+ (* (- GEN67) x0) (* GEN68 x2)) (- GEN69))))
(assert (= BAV110 (<= (+ (* (- GEN70) x0) (* GEN71 x0) (* (- GEN72) x1) (* (- GEN73) x0)) (- GEN74))))
(assert (= BAV111 (<= (+ (* GEN75 x2) (* GEN76 x0) (* (- GEN77) x0) (* GEN78 x2)) (- GEN79))))
(assert (= BAV112 (or (not (< (+ (* (- GEN80) x0) (* GEN81 x2)) GEN82)) (= (+ (* (- GEN83) x1) (* (- GEN84) x2) (* (- GEN85) x1)) GEN86))))
(assert (= BAV113 (< (+ (* (- GEN80) x0) (* GEN81 x2)) GEN82)))
(assert (= BAV114 (= (+ (* (- GEN83) x1) (* (- GEN84) x2) (* (- GEN85) x1)) GEN86)))
(check-sat)
(push 1)
(assert (> (+ (* (- GEN13) x2) (* GEN14 x2)) GEN15))
(assert (not (= (+ (* GEN16 x1) (* (- GEN17) x2)) GEN18)))
(assert (not (<= (+ (* GEN19 x0) (* (- GEN20) x1) (* GEN21 x1)) GEN22)))
(assert (or (<= (+ (* GEN23 x0) (* (- GEN24) x0) (* GEN25 x1) (* GEN26 x1)) GEN27) (not (>= (+ (* GEN28 x1) (* (- GEN29) x1) (* (- GEN30) x1)) GEN31)) (not (>= (+ (* (- GEN32) x2) (* GEN33 x2) (* GEN34 x0) (* GEN35 x2)) GEN36))))
(assert (or (= (+ (* (- GEN37) x1) (* GEN38 x0) (* (- GEN39) x0)) GEN40) (not (<= (+ (* (- GEN41) x2) (* GEN42 x0) (* GEN43 x2)) GEN44))))
(assert (or (<= (+ (* GEN45 x2) (* (- GEN46) x1)) (- GEN47)) (= (+ (* (- GEN48) x2) (* (- GEN49) x2) (* (- GEN50) x2) (* (- GEN51) x2)) (- GEN52))))
(assert (or (= (+ (* GEN53 x2) (* GEN54 x0) (* (- GEN55) x1)) GEN56) (not (< (+ (* GEN57 x2) (* (- GEN58) x0) (* GEN59 x2) (* GEN60 x0)) GEN61)) (not (<= (+ (* (- GEN62) x2) (* GEN63 x0) (* GEN64 x2) (* (- GEN65) x1)) GEN66))))
(check-sat)
(push 1)
(check-sat)
(push 1)
(check-sat)
(push 1)
(assert (or (= (+ (* (- GEN67) x0) (* GEN68 x2)) (- GEN69)) (not (<= (+ (* (- GEN70) x0) (* GEN71 x0) (* (- GEN72) x1) (* (- GEN73) x0)) (- GEN74)))))
(check-sat)
(pop 1)
(assert (not (<= (+ (* GEN75 x2) (* GEN76 x0) (* (- GEN77) x0) (* GEN78 x2)) (- GEN79))))
(assert (or (not (< (+ (* (- GEN80) x0) (* GEN81 x2)) GEN82)) (= (+ (* (- GEN83) x1) (* (- GEN84) x2) (* (- GEN85) x1)) GEN86)))
(check-sat)
(push 1)